# vtk DataFile Version 2.0
sampleSurface
ASCII
DATASET POLYDATA
POINTS 202 double
0.02 0.01 -0.005
0.0200693 0.01 -0.005
0.0200693 0.01 0.005
0.02 0.01 0.005
0.0201391 0.01 -0.005
0.0201391 0.01 0.005
0.0202093 0.01 -0.005
0.0202093 0.01 0.005
0.0202801 0.01 -0.005
0.0202801 0.01 0.005
0.0203513 0.01 -0.005
0.0203513 0.01 0.005
0.0204231 0.01 -0.005
0.0204231 0.01 0.005
0.0204954 0.01 -0.005
0.0204954 0.01 0.005
0.0205681 0.01 -0.005
0.0205681 0.01 0.005
0.0206414 0.01 -0.005
0.0206414 0.01 0.005
0.0207152 0.01 -0.005
0.0207152 0.01 0.005
0.0207895 0.01 -0.005
0.0207895 0.01 0.005
0.0208643 0.01 -0.005
0.0208643 0.01 0.005
0.0209397 0.01 -0.005
0.0209397 0.01 0.005
0.0210156 0.01 -0.005
0.0210156 0.01 0.005
0.021092 0.01 -0.005
0.021092 0.01 0.005
0.021169 0.01 -0.005
0.021169 0.01 0.005
0.0212465 0.01 -0.005
0.0212465 0.01 0.005
0.0213245 0.01 -0.005
0.0213245 0.01 0.005
0.0214031 0.01 -0.005
0.0214031 0.01 0.005
0.0214823 0.01 -0.005
0.0214823 0.01 0.005
0.021562 0.01 -0.005
0.021562 0.01 0.005
0.0216422 0.01 -0.005
0.0216422 0.01 0.005
0.021723 0.01 -0.005
0.021723 0.01 0.005
0.0218044 0.01 -0.005
0.0218044 0.01 0.005
0.0218864 0.01 -0.005
0.0218864 0.01 0.005
0.0219689 0.01 -0.005
0.0219689 0.01 0.005
0.0220521 0.01 -0.005
0.0220521 0.01 0.005
0.0221358 0.01 -0.005
0.0221358 0.01 0.005
0.0222201 0.01 -0.005
0.0222201 0.01 0.005
0.0223049 0.01 -0.005
0.0223049 0.01 0.005
0.0223904 0.01 -0.005
0.0223904 0.01 0.005
0.0224765 0.01 -0.005
0.0224765 0.01 0.005
0.0225632 0.01 -0.005
0.0225632 0.01 0.005
0.0226505 0.01 -0.005
0.0226505 0.01 0.005
0.0227384 0.01 -0.005
0.0227384 0.01 0.005
0.0228269 0.01 -0.005
0.0228269 0.01 0.005
0.0229161 0.01 -0.005
0.0229161 0.01 0.005
0.0230058 0.01 -0.005
0.0230058 0.01 0.005
0.0230963 0.01 -0.005
0.0230963 0.01 0.005
0.0231873 0.01 -0.005
0.0231873 0.01 0.005
0.023279 0.01 -0.005
0.023279 0.01 0.005
0.0233713 0.01 -0.005
0.0233713 0.01 0.005
0.0234643 0.01 -0.005
0.0234643 0.01 0.005
0.0235579 0.01 -0.005
0.0235579 0.01 0.005
0.0236522 0.01 -0.005
0.0236522 0.01 0.005
0.0237471 0.01 -0.005
0.0237471 0.01 0.005
0.0238428 0.01 -0.005
0.0238428 0.01 0.005
0.023939 0.01 -0.005
0.023939 0.01 0.005
0.024036 0.01 -0.005
0.024036 0.01 0.005
0.0241336 0.01 -0.005
0.0241336 0.01 0.005
0.024232 0.01 -0.005
0.024232 0.01 0.005
0.024331 0.01 -0.005
0.024331 0.01 0.005
0.0244307 0.01 -0.005
0.0244307 0.01 0.005
0.0245311 0.01 -0.005
0.0245311 0.01 0.005
0.0246323 0.01 -0.005
0.0246323 0.01 0.005
0.0247341 0.01 -0.005
0.0247341 0.01 0.005
0.0248366 0.01 -0.005
0.0248366 0.01 0.005
0.0249399 0.01 -0.005
0.0249399 0.01 0.005
0.0250439 0.01 -0.005
0.0250439 0.01 0.005
0.0251486 0.01 -0.005
0.0251486 0.01 0.005
0.0252541 0.01 -0.005
0.0252541 0.01 0.005
0.0253603 0.01 -0.005
0.0253603 0.01 0.005
0.0254672 0.01 -0.005
0.0254672 0.01 0.005
0.0255749 0.01 -0.005
0.0255749 0.01 0.005
0.0256834 0.01 -0.005
0.0256834 0.01 0.005
0.0257926 0.01 -0.005
0.0257926 0.01 0.005
0.0259026 0.01 -0.005
0.0259026 0.01 0.005
0.0260134 0.01 -0.005
0.0260134 0.01 0.005
0.0261249 0.01 -0.005
0.0261249 0.01 0.005
0.0262372 0.01 -0.005
0.0262372 0.01 0.005
0.0263503 0.01 -0.005
0.0263503 0.01 0.005
0.0264642 0.01 -0.005
0.0264642 0.01 0.005
0.0265789 0.01 -0.005
0.0265789 0.01 0.005
0.0266944 0.01 -0.005
0.0266944 0.01 0.005
0.0268108 0.01 -0.005
0.0268108 0.01 0.005
0.0269279 0.01 -0.005
0.0269279 0.01 0.005
0.0270459 0.01 -0.005
0.0270459 0.01 0.005
0.0271647 0.01 -0.005
0.0271647 0.01 0.005
0.0272843 0.01 -0.005
0.0272843 0.01 0.005
0.0274048 0.01 -0.005
0.0274048 0.01 0.005
0.0275261 0.01 -0.005
0.0275261 0.01 0.005
0.0276482 0.01 -0.005
0.0276482 0.01 0.005
0.0277713 0.01 -0.005
0.0277713 0.01 0.005
0.0278951 0.01 -0.005
0.0278951 0.01 0.005
0.0280199 0.01 -0.005
0.0280199 0.01 0.005
0.0281455 0.01 -0.005
0.0281455 0.01 0.005
0.0282721 0.01 -0.005
0.0282721 0.01 0.005
0.0283995 0.01 -0.005
0.0283995 0.01 0.005
0.0285278 0.01 -0.005
0.0285278 0.01 0.005
0.028657 0.01 -0.005
0.028657 0.01 0.005
0.0287871 0.01 -0.005
0.0287871 0.01 0.005
0.0289181 0.01 -0.005
0.0289181 0.01 0.005
0.0290501 0.01 -0.005
0.0290501 0.01 0.005
0.0291829 0.01 -0.005
0.0291829 0.01 0.005
0.0293167 0.01 -0.005
0.0293167 0.01 0.005
0.0294515 0.01 -0.005
0.0294515 0.01 0.005
0.0295872 0.01 -0.005
0.0295872 0.01 0.005
0.0297238 0.01 -0.005
0.0297238 0.01 0.005
0.0298614 0.01 -0.005
0.0298614 0.01 0.005
0.03 0.01 -0.005
0.03 0.01 0.005

POLYGONS 100 500
4 0 1 2 3
4 1 4 5 2
4 4 6 7 5
4 6 8 9 7
4 8 10 11 9
4 10 12 13 11
4 12 14 15 13
4 14 16 17 15
4 16 18 19 17
4 18 20 21 19
4 20 22 23 21
4 22 24 25 23
4 24 26 27 25
4 26 28 29 27
4 28 30 31 29
4 30 32 33 31
4 32 34 35 33
4 34 36 37 35
4 36 38 39 37
4 38 40 41 39
4 40 42 43 41
4 42 44 45 43
4 44 46 47 45
4 46 48 49 47
4 48 50 51 49
4 50 52 53 51
4 52 54 55 53
4 54 56 57 55
4 56 58 59 57
4 58 60 61 59
4 60 62 63 61
4 62 64 65 63
4 64 66 67 65
4 66 68 69 67
4 68 70 71 69
4 70 72 73 71
4 72 74 75 73
4 74 76 77 75
4 76 78 79 77
4 78 80 81 79
4 80 82 83 81
4 82 84 85 83
4 84 86 87 85
4 86 88 89 87
4 88 90 91 89
4 90 92 93 91
4 92 94 95 93
4 94 96 97 95
4 96 98 99 97
4 98 100 101 99
4 100 102 103 101
4 102 104 105 103
4 104 106 107 105
4 106 108 109 107
4 108 110 111 109
4 110 112 113 111
4 112 114 115 113
4 114 116 117 115
4 116 118 119 117
4 118 120 121 119
4 120 122 123 121
4 122 124 125 123
4 124 126 127 125
4 126 128 129 127
4 128 130 131 129
4 130 132 133 131
4 132 134 135 133
4 134 136 137 135
4 136 138 139 137
4 138 140 141 139
4 140 142 143 141
4 142 144 145 143
4 144 146 147 145
4 146 148 149 147
4 148 150 151 149
4 150 152 153 151
4 152 154 155 153
4 154 156 157 155
4 156 158 159 157
4 158 160 161 159
4 160 162 163 161
4 162 164 165 163
4 164 166 167 165
4 166 168 169 167
4 168 170 171 169
4 170 172 173 171
4 172 174 175 173
4 174 176 177 175
4 176 178 179 177
4 178 180 181 179
4 180 182 183 181
4 182 184 185 183
4 184 186 187 185
4 186 188 189 187
4 188 190 191 189
4 190 192 193 191
4 192 194 195 193
4 194 196 197 195
4 196 198 199 197
4 198 200 201 199
CELL_DATA 100
FIELD attributes 1
wallShearStress 3 100 float
-0.0175548 -0.00677542 0
0.00608324 -0.00110393 0
-0.00190604 0.000538196 0
0.000114818 -7.56055e-06 0
-0.00143054 6.33855e-05 0
-0.00105436 3.19638e-05 0
-0.00174464 4.05396e-05 0
-0.00210789 9.32114e-05 0
-0.00313552 0.00014033 0
-0.00432845 0.00019206 0
-0.00569939 0.000206902 0
-0.00701225 0.000200315 0
-0.00807845 0.000153648 0
-0.00832321 7.3086e-05 0
-0.0067494 -0.000186981 0
-0.00219403 -0.000712901 0
0.00518646 -0.00119172 0
0.0129095 -0.00131387 0
0.0184864 -0.000980104 0
0.0208188 -0.000441282 0
0.0196044 0.000169408 0
0.0153178 0.000654634 0
0.00932635 0.000829436 0
0.0031125 0.000742754 0
-0.00246668 0.000573836 0
-0.00636671 0.000324938 0
-0.00810615 0.000113482 0
-0.00843903 4.22108e-05 0
-0.00834202 3.71157e-05 0
-0.00806917 7.81691e-06 0
-0.00744302 -4.86831e-05 0
-0.00642186 -0.00010314 0
-0.00512397 -0.000143655 0
-0.00370282 -0.000165899 0
-0.00229651 -0.000169909 0
-0.00100688 -0.000160364 0
0.000107261 -0.000144059 0
0.00101729 -0.000122845 0
0.00170634 -9.88678e-05 0
0.00215691 -7.14323e-05 0
0.00235051 -4.16181e-05 0
0.00227904 -6.29437e-06 0
0.00196541 2.60501e-05 0
0.00145324 5.24146e-05 0
0.000817764 6.68075e-05 0
0.000139039 7.2028e-05 0
-0.000521345 6.98772e-05 0
-0.0011228 6.2771e-05 0
-0.00165199 5.44733e-05 0
-0.00211642 4.75989e-05 0
-0.00253586 4.37774e-05 0
-0.0029314 4.31397e-05 0
-0.00331178 4.37695e-05 0
-0.0036601 4.20034e-05 0
-0.00393485 3.48717e-05 0
-0.00409088 2.37365e-05 0
-0.0041063 1.11368e-05 0
-0.00398823 -6.47093e-07 0
-0.00374647 -1.22072e-05 0
-0.00336293 -2.86812e-05 0
-0.00279233 -5.34744e-05 0
-0.00200783 -8.23867e-05 0
-0.00106921 -0.000102441 0
-0.000147205 -0.000100056 0
0.00053613 -7.10577e-05 0
0.000809951 -2.6839e-05 0
0.000655988 1.78733e-05 0
0.00019562 4.4539e-05 0
-0.000406632 5.61302e-05 0
-0.00101603 5.53528e-05 0
-0.00155625 4.79803e-05 0
-0.00199939 3.93348e-05 0
-0.00234335 3.12691e-05 0
-0.00259122 2.36948e-05 0
-0.00274015 1.5784e-05 0
-0.00278083 7.6068e-06 0
-0.00270278 -2.29812e-06 0
-0.0024972 -1.3066e-05 0
-0.00215932 -2.45475e-05 0
-0.00168879 -3.67383e-05 0
-0.00108625 -5.05219e-05 0
-0.000367376 -6.41257e-05 0
0.000381758 -6.5761e-05 0
0.000969738 -5.07922e-05 0
0.00118959 -1.80774e-05 0
0.000985011 1.84364e-05 0
0.000485656 4.03858e-05 0
-0.0001006 4.31597e-05 0
-0.000613715 3.53992e-05 0
-0.000987439 2.38111e-05 0
-0.00123954 1.47388e-05 0
-0.00141424 1.02341e-05 0
-0.00157046 1.03704e-05 0
-0.00172333 1.17181e-05 0
-0.00189964 1.39879e-05 0
-0.00204377 1.24885e-05 0
-0.00220731 1.25463e-05 0
-0.00226075 6.52317e-06 0
-0.00237246 7.41698e-06 0
-0.00232744 -1.60101e-06 0
