# vtk DataFile Version 2.0
sampleSurface
ASCII
DATASET POLYDATA
POINTS 202 double
0.02 0.01 -0.005
0.0200693 0.01 -0.005
0.0200693 0.01 0.005
0.02 0.01 0.005
0.0201391 0.01 -0.005
0.0201391 0.01 0.005
0.0202093 0.01 -0.005
0.0202093 0.01 0.005
0.0202801 0.01 -0.005
0.0202801 0.01 0.005
0.0203513 0.01 -0.005
0.0203513 0.01 0.005
0.0204231 0.01 -0.005
0.0204231 0.01 0.005
0.0204954 0.01 -0.005
0.0204954 0.01 0.005
0.0205681 0.01 -0.005
0.0205681 0.01 0.005
0.0206414 0.01 -0.005
0.0206414 0.01 0.005
0.0207152 0.01 -0.005
0.0207152 0.01 0.005
0.0207895 0.01 -0.005
0.0207895 0.01 0.005
0.0208643 0.01 -0.005
0.0208643 0.01 0.005
0.0209397 0.01 -0.005
0.0209397 0.01 0.005
0.0210156 0.01 -0.005
0.0210156 0.01 0.005
0.021092 0.01 -0.005
0.021092 0.01 0.005
0.021169 0.01 -0.005
0.021169 0.01 0.005
0.0212465 0.01 -0.005
0.0212465 0.01 0.005
0.0213245 0.01 -0.005
0.0213245 0.01 0.005
0.0214031 0.01 -0.005
0.0214031 0.01 0.005
0.0214823 0.01 -0.005
0.0214823 0.01 0.005
0.021562 0.01 -0.005
0.021562 0.01 0.005
0.0216422 0.01 -0.005
0.0216422 0.01 0.005
0.021723 0.01 -0.005
0.021723 0.01 0.005
0.0218044 0.01 -0.005
0.0218044 0.01 0.005
0.0218864 0.01 -0.005
0.0218864 0.01 0.005
0.0219689 0.01 -0.005
0.0219689 0.01 0.005
0.0220521 0.01 -0.005
0.0220521 0.01 0.005
0.0221358 0.01 -0.005
0.0221358 0.01 0.005
0.0222201 0.01 -0.005
0.0222201 0.01 0.005
0.0223049 0.01 -0.005
0.0223049 0.01 0.005
0.0223904 0.01 -0.005
0.0223904 0.01 0.005
0.0224765 0.01 -0.005
0.0224765 0.01 0.005
0.0225632 0.01 -0.005
0.0225632 0.01 0.005
0.0226505 0.01 -0.005
0.0226505 0.01 0.005
0.0227384 0.01 -0.005
0.0227384 0.01 0.005
0.0228269 0.01 -0.005
0.0228269 0.01 0.005
0.0229161 0.01 -0.005
0.0229161 0.01 0.005
0.0230058 0.01 -0.005
0.0230058 0.01 0.005
0.0230963 0.01 -0.005
0.0230963 0.01 0.005
0.0231873 0.01 -0.005
0.0231873 0.01 0.005
0.023279 0.01 -0.005
0.023279 0.01 0.005
0.0233713 0.01 -0.005
0.0233713 0.01 0.005
0.0234643 0.01 -0.005
0.0234643 0.01 0.005
0.0235579 0.01 -0.005
0.0235579 0.01 0.005
0.0236522 0.01 -0.005
0.0236522 0.01 0.005
0.0237471 0.01 -0.005
0.0237471 0.01 0.005
0.0238428 0.01 -0.005
0.0238428 0.01 0.005
0.023939 0.01 -0.005
0.023939 0.01 0.005
0.024036 0.01 -0.005
0.024036 0.01 0.005
0.0241336 0.01 -0.005
0.0241336 0.01 0.005
0.024232 0.01 -0.005
0.024232 0.01 0.005
0.024331 0.01 -0.005
0.024331 0.01 0.005
0.0244307 0.01 -0.005
0.0244307 0.01 0.005
0.0245311 0.01 -0.005
0.0245311 0.01 0.005
0.0246323 0.01 -0.005
0.0246323 0.01 0.005
0.0247341 0.01 -0.005
0.0247341 0.01 0.005
0.0248366 0.01 -0.005
0.0248366 0.01 0.005
0.0249399 0.01 -0.005
0.0249399 0.01 0.005
0.0250439 0.01 -0.005
0.0250439 0.01 0.005
0.0251486 0.01 -0.005
0.0251486 0.01 0.005
0.0252541 0.01 -0.005
0.0252541 0.01 0.005
0.0253603 0.01 -0.005
0.0253603 0.01 0.005
0.0254672 0.01 -0.005
0.0254672 0.01 0.005
0.0255749 0.01 -0.005
0.0255749 0.01 0.005
0.0256834 0.01 -0.005
0.0256834 0.01 0.005
0.0257926 0.01 -0.005
0.0257926 0.01 0.005
0.0259026 0.01 -0.005
0.0259026 0.01 0.005
0.0260134 0.01 -0.005
0.0260134 0.01 0.005
0.0261249 0.01 -0.005
0.0261249 0.01 0.005
0.0262372 0.01 -0.005
0.0262372 0.01 0.005
0.0263503 0.01 -0.005
0.0263503 0.01 0.005
0.0264642 0.01 -0.005
0.0264642 0.01 0.005
0.0265789 0.01 -0.005
0.0265789 0.01 0.005
0.0266944 0.01 -0.005
0.0266944 0.01 0.005
0.0268108 0.01 -0.005
0.0268108 0.01 0.005
0.0269279 0.01 -0.005
0.0269279 0.01 0.005
0.0270459 0.01 -0.005
0.0270459 0.01 0.005
0.0271647 0.01 -0.005
0.0271647 0.01 0.005
0.0272843 0.01 -0.005
0.0272843 0.01 0.005
0.0274048 0.01 -0.005
0.0274048 0.01 0.005
0.0275261 0.01 -0.005
0.0275261 0.01 0.005
0.0276482 0.01 -0.005
0.0276482 0.01 0.005
0.0277713 0.01 -0.005
0.0277713 0.01 0.005
0.0278951 0.01 -0.005
0.0278951 0.01 0.005
0.0280199 0.01 -0.005
0.0280199 0.01 0.005
0.0281455 0.01 -0.005
0.0281455 0.01 0.005
0.0282721 0.01 -0.005
0.0282721 0.01 0.005
0.0283995 0.01 -0.005
0.0283995 0.01 0.005
0.0285278 0.01 -0.005
0.0285278 0.01 0.005
0.028657 0.01 -0.005
0.028657 0.01 0.005
0.0287871 0.01 -0.005
0.0287871 0.01 0.005
0.0289181 0.01 -0.005
0.0289181 0.01 0.005
0.0290501 0.01 -0.005
0.0290501 0.01 0.005
0.0291829 0.01 -0.005
0.0291829 0.01 0.005
0.0293167 0.01 -0.005
0.0293167 0.01 0.005
0.0294515 0.01 -0.005
0.0294515 0.01 0.005
0.0295872 0.01 -0.005
0.0295872 0.01 0.005
0.0297238 0.01 -0.005
0.0297238 0.01 0.005
0.0298614 0.01 -0.005
0.0298614 0.01 0.005
0.03 0.01 -0.005
0.03 0.01 0.005

POLYGONS 100 500
4 0 1 2 3
4 1 4 5 2
4 4 6 7 5
4 6 8 9 7
4 8 10 11 9
4 10 12 13 11
4 12 14 15 13
4 14 16 17 15
4 16 18 19 17
4 18 20 21 19
4 20 22 23 21
4 22 24 25 23
4 24 26 27 25
4 26 28 29 27
4 28 30 31 29
4 30 32 33 31
4 32 34 35 33
4 34 36 37 35
4 36 38 39 37
4 38 40 41 39
4 40 42 43 41
4 42 44 45 43
4 44 46 47 45
4 46 48 49 47
4 48 50 51 49
4 50 52 53 51
4 52 54 55 53
4 54 56 57 55
4 56 58 59 57
4 58 60 61 59
4 60 62 63 61
4 62 64 65 63
4 64 66 67 65
4 66 68 69 67
4 68 70 71 69
4 70 72 73 71
4 72 74 75 73
4 74 76 77 75
4 76 78 79 77
4 78 80 81 79
4 80 82 83 81
4 82 84 85 83
4 84 86 87 85
4 86 88 89 87
4 88 90 91 89
4 90 92 93 91
4 92 94 95 93
4 94 96 97 95
4 96 98 99 97
4 98 100 101 99
4 100 102 103 101
4 102 104 105 103
4 104 106 107 105
4 106 108 109 107
4 108 110 111 109
4 110 112 113 111
4 112 114 115 113
4 114 116 117 115
4 116 118 119 117
4 118 120 121 119
4 120 122 123 121
4 122 124 125 123
4 124 126 127 125
4 126 128 129 127
4 128 130 131 129
4 130 132 133 131
4 132 134 135 133
4 134 136 137 135
4 136 138 139 137
4 138 140 141 139
4 140 142 143 141
4 142 144 145 143
4 144 146 147 145
4 146 148 149 147
4 148 150 151 149
4 150 152 153 151
4 152 154 155 153
4 154 156 157 155
4 156 158 159 157
4 158 160 161 159
4 160 162 163 161
4 162 164 165 163
4 164 166 167 165
4 166 168 169 167
4 168 170 171 169
4 170 172 173 171
4 172 174 175 173
4 174 176 177 175
4 176 178 179 177
4 178 180 181 179
4 180 182 183 181
4 182 184 185 183
4 184 186 187 185
4 186 188 189 187
4 188 190 191 189
4 190 192 193 191
4 192 194 195 193
4 194 196 197 195
4 196 198 199 197
4 198 200 201 199
CELL_DATA 100
FIELD attributes 1
wallShearStress 3 100 float
-0.0131094 -8.27588e-05 0
-0.0148838 -0.000409514 0
-0.0128615 -0.000396646 0
-0.0109413 -0.00022412 0
-0.00978659 -0.000107111 0
-0.00890019 -8.81484e-05 0
-0.00809461 -8.73808e-05 0
-0.00735023 -8.12987e-05 0
-0.00668019 -7.27306e-05 0
-0.00608778 -6.57212e-05 0
-0.005558 -6.2301e-05 0
-0.00507786 -6.01374e-05 0
-0.00466292 -5.27515e-05 0
-0.00435801 -3.70271e-05 0
-0.00420341 -1.66224e-05 0
-0.00419568 3.07796e-06 0
-0.00428474 1.55789e-05 0
-0.00440393 1.83337e-05 0
-0.00449996 1.52271e-05 0
-0.00454503 1.03309e-05 0
-0.00453342 3.6213e-06 0
-0.004472 -2.3581e-06 0
-0.00437325 -6.81953e-06 0
-0.00425069 -9.57767e-06 0
-0.00411445 -1.11691e-05 0
-0.00396514 -1.34684e-05 0
-0.00379417 -1.80228e-05 0
-0.0036021 -2.24556e-05 0
-0.00342475 -2.05299e-05 0
-0.00333737 -8.82751e-06 0
-0.00342695 1.9415e-05 0
-0.00373259 5.21191e-05 0
-0.00416353 6.99139e-05 0
-0.00448045 5.79099e-05 0
-0.00437182 -5.36036e-06 0
-0.00359275 -0.000104786 0
-0.00219254 -0.000189253 0
-0.000642437 -0.000197162 0
0.000402823 -0.000120916 0
0.000567363 -8.42722e-06 0
-1.29316e-05 6.69357e-05 0
-0.000908679 9.91331e-05 0
-0.00175576 8.87194e-05 0
-0.00239122 6.35502e-05 0
-0.00279427 3.96567e-05 0
-0.00301335 2.18425e-05 0
-0.0031064 1.03774e-05 0
-0.00311964 3.03373e-06 0
-0.00308417 -1.96749e-06 0
-0.00301892 -5.36792e-06 0
-0.00293529 -7.86134e-06 0
-0.00284258 -9.37569e-06 0
-0.00275244 -9.32922e-06 0
-0.00267995 -7.13859e-06 0
-0.00264017 -3.03622e-06 0
-0.00263813 1.81427e-06 0
-0.00265917 4.60404e-06 0
-0.0026755 3.93338e-06 0
-0.00267336 2.62383e-06 0
-0.00267287 4.99469e-06 0
-0.00270889 1.16685e-05 0
-0.00278331 1.77186e-05 0
-0.00284158 1.78363e-05 0
-0.0027933 5.08063e-06 0
-0.00254782 -1.85515e-05 0
-0.00204656 -4.97661e-05 0
-0.00129864 -8.04157e-05 0
-0.000406068 -9.75245e-05 0
0.000451805 -9.39132e-05 0
0.00106933 -6.73989e-05 0
0.00129031 -2.58919e-05 0
0.00107376 2.12569e-05 0
0.000517066 5.41188e-05 0
-0.000212551 6.61992e-05 0
-0.00094286 6.63331e-05 0
-0.00155046 5.36318e-05 0
-0.0019828 3.71742e-05 0
-0.0022378 2.14116e-05 0
-0.00234274 8.91676e-06 0
-0.00233482 -5.8526e-07 0
-0.00225208 -6.86574e-06 0
-0.00212805 -1.03054e-05 0
-0.00199033 -1.15019e-05 0
-0.00185846 -1.10985e-05 0
-0.0017474 -9.49486e-06 0
-0.00166138 -7.72024e-06 0
-0.0016 -6.53023e-06 0
-0.00155215 -6.58531e-06 0
-0.00153388 -5.60694e-06 0
-0.00157225 -6.60108e-08 0
-0.0017414 1.18979e-05 0
-0.00205073 2.57786e-05 0
-0.00249385 3.76691e-05 0
-0.00297995 4.37047e-05 0
-0.00339606 4.37591e-05 0
-0.00375307 3.75179e-05 0
-0.00349686 1.0114e-05 0
-0.00321117 -3.46349e-05 0
-0.00124462 -0.000149374 0
0.000694151 -6.43317e-05 0
