# vtk DataFile Version 2.0
sampleSurface
ASCII
DATASET POLYDATA
POINTS 202 double
0.02 0.01 -0.005
0.0200693 0.01 -0.005
0.0200693 0.01 0.005
0.02 0.01 0.005
0.0201391 0.01 -0.005
0.0201391 0.01 0.005
0.0202093 0.01 -0.005
0.0202093 0.01 0.005
0.0202801 0.01 -0.005
0.0202801 0.01 0.005
0.0203513 0.01 -0.005
0.0203513 0.01 0.005
0.0204231 0.01 -0.005
0.0204231 0.01 0.005
0.0204954 0.01 -0.005
0.0204954 0.01 0.005
0.0205681 0.01 -0.005
0.0205681 0.01 0.005
0.0206414 0.01 -0.005
0.0206414 0.01 0.005
0.0207152 0.01 -0.005
0.0207152 0.01 0.005
0.0207895 0.01 -0.005
0.0207895 0.01 0.005
0.0208643 0.01 -0.005
0.0208643 0.01 0.005
0.0209397 0.01 -0.005
0.0209397 0.01 0.005
0.0210156 0.01 -0.005
0.0210156 0.01 0.005
0.021092 0.01 -0.005
0.021092 0.01 0.005
0.021169 0.01 -0.005
0.021169 0.01 0.005
0.0212465 0.01 -0.005
0.0212465 0.01 0.005
0.0213245 0.01 -0.005
0.0213245 0.01 0.005
0.0214031 0.01 -0.005
0.0214031 0.01 0.005
0.0214823 0.01 -0.005
0.0214823 0.01 0.005
0.021562 0.01 -0.005
0.021562 0.01 0.005
0.0216422 0.01 -0.005
0.0216422 0.01 0.005
0.021723 0.01 -0.005
0.021723 0.01 0.005
0.0218044 0.01 -0.005
0.0218044 0.01 0.005
0.0218864 0.01 -0.005
0.0218864 0.01 0.005
0.0219689 0.01 -0.005
0.0219689 0.01 0.005
0.0220521 0.01 -0.005
0.0220521 0.01 0.005
0.0221358 0.01 -0.005
0.0221358 0.01 0.005
0.0222201 0.01 -0.005
0.0222201 0.01 0.005
0.0223049 0.01 -0.005
0.0223049 0.01 0.005
0.0223904 0.01 -0.005
0.0223904 0.01 0.005
0.0224765 0.01 -0.005
0.0224765 0.01 0.005
0.0225632 0.01 -0.005
0.0225632 0.01 0.005
0.0226505 0.01 -0.005
0.0226505 0.01 0.005
0.0227384 0.01 -0.005
0.0227384 0.01 0.005
0.0228269 0.01 -0.005
0.0228269 0.01 0.005
0.0229161 0.01 -0.005
0.0229161 0.01 0.005
0.0230058 0.01 -0.005
0.0230058 0.01 0.005
0.0230963 0.01 -0.005
0.0230963 0.01 0.005
0.0231873 0.01 -0.005
0.0231873 0.01 0.005
0.023279 0.01 -0.005
0.023279 0.01 0.005
0.0233713 0.01 -0.005
0.0233713 0.01 0.005
0.0234643 0.01 -0.005
0.0234643 0.01 0.005
0.0235579 0.01 -0.005
0.0235579 0.01 0.005
0.0236522 0.01 -0.005
0.0236522 0.01 0.005
0.0237471 0.01 -0.005
0.0237471 0.01 0.005
0.0238428 0.01 -0.005
0.0238428 0.01 0.005
0.023939 0.01 -0.005
0.023939 0.01 0.005
0.024036 0.01 -0.005
0.024036 0.01 0.005
0.0241336 0.01 -0.005
0.0241336 0.01 0.005
0.024232 0.01 -0.005
0.024232 0.01 0.005
0.024331 0.01 -0.005
0.024331 0.01 0.005
0.0244307 0.01 -0.005
0.0244307 0.01 0.005
0.0245311 0.01 -0.005
0.0245311 0.01 0.005
0.0246323 0.01 -0.005
0.0246323 0.01 0.005
0.0247341 0.01 -0.005
0.0247341 0.01 0.005
0.0248366 0.01 -0.005
0.0248366 0.01 0.005
0.0249399 0.01 -0.005
0.0249399 0.01 0.005
0.0250439 0.01 -0.005
0.0250439 0.01 0.005
0.0251486 0.01 -0.005
0.0251486 0.01 0.005
0.0252541 0.01 -0.005
0.0252541 0.01 0.005
0.0253603 0.01 -0.005
0.0253603 0.01 0.005
0.0254672 0.01 -0.005
0.0254672 0.01 0.005
0.0255749 0.01 -0.005
0.0255749 0.01 0.005
0.0256834 0.01 -0.005
0.0256834 0.01 0.005
0.0257926 0.01 -0.005
0.0257926 0.01 0.005
0.0259026 0.01 -0.005
0.0259026 0.01 0.005
0.0260134 0.01 -0.005
0.0260134 0.01 0.005
0.0261249 0.01 -0.005
0.0261249 0.01 0.005
0.0262372 0.01 -0.005
0.0262372 0.01 0.005
0.0263503 0.01 -0.005
0.0263503 0.01 0.005
0.0264642 0.01 -0.005
0.0264642 0.01 0.005
0.0265789 0.01 -0.005
0.0265789 0.01 0.005
0.0266944 0.01 -0.005
0.0266944 0.01 0.005
0.0268108 0.01 -0.005
0.0268108 0.01 0.005
0.0269279 0.01 -0.005
0.0269279 0.01 0.005
0.0270459 0.01 -0.005
0.0270459 0.01 0.005
0.0271647 0.01 -0.005
0.0271647 0.01 0.005
0.0272843 0.01 -0.005
0.0272843 0.01 0.005
0.0274048 0.01 -0.005
0.0274048 0.01 0.005
0.0275261 0.01 -0.005
0.0275261 0.01 0.005
0.0276482 0.01 -0.005
0.0276482 0.01 0.005
0.0277713 0.01 -0.005
0.0277713 0.01 0.005
0.0278951 0.01 -0.005
0.0278951 0.01 0.005
0.0280199 0.01 -0.005
0.0280199 0.01 0.005
0.0281455 0.01 -0.005
0.0281455 0.01 0.005
0.0282721 0.01 -0.005
0.0282721 0.01 0.005
0.0283995 0.01 -0.005
0.0283995 0.01 0.005
0.0285278 0.01 -0.005
0.0285278 0.01 0.005
0.028657 0.01 -0.005
0.028657 0.01 0.005
0.0287871 0.01 -0.005
0.0287871 0.01 0.005
0.0289181 0.01 -0.005
0.0289181 0.01 0.005
0.0290501 0.01 -0.005
0.0290501 0.01 0.005
0.0291829 0.01 -0.005
0.0291829 0.01 0.005
0.0293167 0.01 -0.005
0.0293167 0.01 0.005
0.0294515 0.01 -0.005
0.0294515 0.01 0.005
0.0295872 0.01 -0.005
0.0295872 0.01 0.005
0.0297238 0.01 -0.005
0.0297238 0.01 0.005
0.0298614 0.01 -0.005
0.0298614 0.01 0.005
0.03 0.01 -0.005
0.03 0.01 0.005

POLYGONS 100 500
4 0 1 2 3
4 1 4 5 2
4 4 6 7 5
4 6 8 9 7
4 8 10 11 9
4 10 12 13 11
4 12 14 15 13
4 14 16 17 15
4 16 18 19 17
4 18 20 21 19
4 20 22 23 21
4 22 24 25 23
4 24 26 27 25
4 26 28 29 27
4 28 30 31 29
4 30 32 33 31
4 32 34 35 33
4 34 36 37 35
4 36 38 39 37
4 38 40 41 39
4 40 42 43 41
4 42 44 45 43
4 44 46 47 45
4 46 48 49 47
4 48 50 51 49
4 50 52 53 51
4 52 54 55 53
4 54 56 57 55
4 56 58 59 57
4 58 60 61 59
4 60 62 63 61
4 62 64 65 63
4 64 66 67 65
4 66 68 69 67
4 68 70 71 69
4 70 72 73 71
4 72 74 75 73
4 74 76 77 75
4 76 78 79 77
4 78 80 81 79
4 80 82 83 81
4 82 84 85 83
4 84 86 87 85
4 86 88 89 87
4 88 90 91 89
4 90 92 93 91
4 92 94 95 93
4 94 96 97 95
4 96 98 99 97
4 98 100 101 99
4 100 102 103 101
4 102 104 105 103
4 104 106 107 105
4 106 108 109 107
4 108 110 111 109
4 110 112 113 111
4 112 114 115 113
4 114 116 117 115
4 116 118 119 117
4 118 120 121 119
4 120 122 123 121
4 122 124 125 123
4 124 126 127 125
4 126 128 129 127
4 128 130 131 129
4 130 132 133 131
4 132 134 135 133
4 134 136 137 135
4 136 138 139 137
4 138 140 141 139
4 140 142 143 141
4 142 144 145 143
4 144 146 147 145
4 146 148 149 147
4 148 150 151 149
4 150 152 153 151
4 152 154 155 153
4 154 156 157 155
4 156 158 159 157
4 158 160 161 159
4 160 162 163 161
4 162 164 165 163
4 164 166 167 165
4 166 168 169 167
4 168 170 171 169
4 170 172 173 171
4 172 174 175 173
4 174 176 177 175
4 176 178 179 177
4 178 180 181 179
4 180 182 183 181
4 182 184 185 183
4 184 186 187 185
4 186 188 189 187
4 188 190 191 189
4 190 192 193 191
4 192 194 195 193
4 194 196 197 195
4 196 198 199 197
4 198 200 201 199
CELL_DATA 100
FIELD attributes 1
wallShearStress 3 100 float
-0.0198825 -0.00367116 0
-0.0119518 -0.000959312 0
-0.009059 -0.000334682 0
-0.00759418 -0.000148787 0
-0.00691517 -5.95333e-05 0
-0.006596 -2.715e-05 0
-0.00637151 -1.627e-05 0
-0.00615061 -1.27349e-05 0
-0.00590212 -1.51495e-05 0
-0.00560791 -2.17831e-05 0
-0.00525962 -3.02798e-05 0
-0.00486559 -3.81617e-05 0
-0.00445218 -4.29024e-05 0
-0.00405768 -4.24209e-05 0
-0.00372343 -3.55867e-05 0
-0.00348601 -2.3784e-05 0
-0.00337301 -9.39375e-06 0
-0.00339964 8.34989e-06 0
-0.00357531 2.92031e-05 0
-0.00392605 5.84245e-05 0
-0.00453514 0.000108359 0
-0.00555666 0.00018334 0
-0.0069336 0.000239216 0
-0.00786617 0.000191034 0
-0.00683611 -0.000184417 0
-0.00250262 -0.000743343 0
0.00359071 -0.000887852 0
0.00777802 -0.000581666 0
0.00842151 -3.98055e-05 0
0.00594534 0.0003576 0
0.00213653 0.000475851 0
-0.00157297 0.000414721 0
-0.00442871 0.000309992 0
-0.00633463 0.000221813 0
-0.00726255 0.000135228 0
-0.00693862 -2.93025e-05 0
-0.00517587 -0.000232167 0
-0.00239592 -0.00037648 0
0.000577953 -0.000398891 0
0.00282924 -0.000298937 0
0.00358959 -0.000101828 0
0.00255042 0.000127672 0
1.31964e-05 0.000266208 0
-0.00318177 0.000323976 0
-0.00597871 0.000260887 0
-0.00776418 0.000151741 0
-0.0089097 0.00013437 0
-0.01021 0.000206087 0
-0.0115367 0.000228227 0
-0.011781 9.65391e-05 0
-0.00994455 -0.000195942 0
-0.00557572 -0.000556315 0
0.000205945 -0.000709007 0
0.00531644 -0.000633991 0
0.00834747 -0.000359156 0
0.00875037 -3.09724e-05 0
0.00692339 0.000217526 0
0.00401673 0.000307589 0
0.00114769 0.000284952 0
-0.00112123 0.000215531 0
-0.00261261 0.000135242 0
-0.00344699 7.33934e-05 0
-0.00382436 3.32828e-05 0
-0.00392677 1.14296e-05 0
-0.00388226 -1.60455e-06 0
-0.00376692 -7.27778e-06 0
-0.00361933 -9.82725e-06 0
-0.00345301 -1.16132e-05 0
-0.00326908 -1.37096e-05 0
-0.00306817 -1.59613e-05 0
-0.00286004 -1.72193e-05 0
-0.00266742 -1.59652e-05 0
-0.00252145 -1.12796e-05 0
-0.00244964 -3.9188e-06 0
-0.00245924 3.96668e-06 0
-0.00251905 8.50926e-06 0
-0.0025542 6.01755e-06 0
-0.00246917 -6.79836e-06 0
-0.00221368 -2.28556e-05 0
-0.00185561 -3.06012e-05 0
-0.00156465 -2.09064e-05 0
-0.00149743 1.00482e-06 0
-0.00168856 2.32049e-05 0
-0.00202965 3.47098e-05 0
-0.00236114 3.17592e-05 0
-0.00254158 1.77522e-05 0
-0.00248588 -4.5492e-06 0
-0.0021639 -2.93701e-05 0
-0.00161983 -5.03912e-05 0
-0.000960962 -6.0669e-05 0
-0.000341684 -5.59429e-05 0
7.87495e-05 -3.8599e-05 0
0.000220223 -1.29431e-05 0
4.16565e-05 1.03882e-05 0
-0.000338028 2.89707e-05 0
-0.00088083 3.75338e-05 0
-0.00151474 4.62043e-05 0
-0.00205696 4.01053e-05 0
-0.00279704 4.96887e-05 0
-0.00337166 2.31345e-05 0
