# vtk DataFile Version 2.0
sampleSurface
ASCII
DATASET POLYDATA
POINTS 202 double
0.02 0.01 -0.005
0.0200693 0.01 -0.005
0.0200693 0.01 0.005
0.02 0.01 0.005
0.0201391 0.01 -0.005
0.0201391 0.01 0.005
0.0202093 0.01 -0.005
0.0202093 0.01 0.005
0.0202801 0.01 -0.005
0.0202801 0.01 0.005
0.0203513 0.01 -0.005
0.0203513 0.01 0.005
0.0204231 0.01 -0.005
0.0204231 0.01 0.005
0.0204954 0.01 -0.005
0.0204954 0.01 0.005
0.0205681 0.01 -0.005
0.0205681 0.01 0.005
0.0206414 0.01 -0.005
0.0206414 0.01 0.005
0.0207152 0.01 -0.005
0.0207152 0.01 0.005
0.0207895 0.01 -0.005
0.0207895 0.01 0.005
0.0208643 0.01 -0.005
0.0208643 0.01 0.005
0.0209397 0.01 -0.005
0.0209397 0.01 0.005
0.0210156 0.01 -0.005
0.0210156 0.01 0.005
0.021092 0.01 -0.005
0.021092 0.01 0.005
0.021169 0.01 -0.005
0.021169 0.01 0.005
0.0212465 0.01 -0.005
0.0212465 0.01 0.005
0.0213245 0.01 -0.005
0.0213245 0.01 0.005
0.0214031 0.01 -0.005
0.0214031 0.01 0.005
0.0214823 0.01 -0.005
0.0214823 0.01 0.005
0.021562 0.01 -0.005
0.021562 0.01 0.005
0.0216422 0.01 -0.005
0.0216422 0.01 0.005
0.021723 0.01 -0.005
0.021723 0.01 0.005
0.0218044 0.01 -0.005
0.0218044 0.01 0.005
0.0218864 0.01 -0.005
0.0218864 0.01 0.005
0.0219689 0.01 -0.005
0.0219689 0.01 0.005
0.0220521 0.01 -0.005
0.0220521 0.01 0.005
0.0221358 0.01 -0.005
0.0221358 0.01 0.005
0.0222201 0.01 -0.005
0.0222201 0.01 0.005
0.0223049 0.01 -0.005
0.0223049 0.01 0.005
0.0223904 0.01 -0.005
0.0223904 0.01 0.005
0.0224765 0.01 -0.005
0.0224765 0.01 0.005
0.0225632 0.01 -0.005
0.0225632 0.01 0.005
0.0226505 0.01 -0.005
0.0226505 0.01 0.005
0.0227384 0.01 -0.005
0.0227384 0.01 0.005
0.0228269 0.01 -0.005
0.0228269 0.01 0.005
0.0229161 0.01 -0.005
0.0229161 0.01 0.005
0.0230058 0.01 -0.005
0.0230058 0.01 0.005
0.0230963 0.01 -0.005
0.0230963 0.01 0.005
0.0231873 0.01 -0.005
0.0231873 0.01 0.005
0.023279 0.01 -0.005
0.023279 0.01 0.005
0.0233713 0.01 -0.005
0.0233713 0.01 0.005
0.0234643 0.01 -0.005
0.0234643 0.01 0.005
0.0235579 0.01 -0.005
0.0235579 0.01 0.005
0.0236522 0.01 -0.005
0.0236522 0.01 0.005
0.0237471 0.01 -0.005
0.0237471 0.01 0.005
0.0238428 0.01 -0.005
0.0238428 0.01 0.005
0.023939 0.01 -0.005
0.023939 0.01 0.005
0.024036 0.01 -0.005
0.024036 0.01 0.005
0.0241336 0.01 -0.005
0.0241336 0.01 0.005
0.024232 0.01 -0.005
0.024232 0.01 0.005
0.024331 0.01 -0.005
0.024331 0.01 0.005
0.0244307 0.01 -0.005
0.0244307 0.01 0.005
0.0245311 0.01 -0.005
0.0245311 0.01 0.005
0.0246323 0.01 -0.005
0.0246323 0.01 0.005
0.0247341 0.01 -0.005
0.0247341 0.01 0.005
0.0248366 0.01 -0.005
0.0248366 0.01 0.005
0.0249399 0.01 -0.005
0.0249399 0.01 0.005
0.0250439 0.01 -0.005
0.0250439 0.01 0.005
0.0251486 0.01 -0.005
0.0251486 0.01 0.005
0.0252541 0.01 -0.005
0.0252541 0.01 0.005
0.0253603 0.01 -0.005
0.0253603 0.01 0.005
0.0254672 0.01 -0.005
0.0254672 0.01 0.005
0.0255749 0.01 -0.005
0.0255749 0.01 0.005
0.0256834 0.01 -0.005
0.0256834 0.01 0.005
0.0257926 0.01 -0.005
0.0257926 0.01 0.005
0.0259026 0.01 -0.005
0.0259026 0.01 0.005
0.0260134 0.01 -0.005
0.0260134 0.01 0.005
0.0261249 0.01 -0.005
0.0261249 0.01 0.005
0.0262372 0.01 -0.005
0.0262372 0.01 0.005
0.0263503 0.01 -0.005
0.0263503 0.01 0.005
0.0264642 0.01 -0.005
0.0264642 0.01 0.005
0.0265789 0.01 -0.005
0.0265789 0.01 0.005
0.0266944 0.01 -0.005
0.0266944 0.01 0.005
0.0268108 0.01 -0.005
0.0268108 0.01 0.005
0.0269279 0.01 -0.005
0.0269279 0.01 0.005
0.0270459 0.01 -0.005
0.0270459 0.01 0.005
0.0271647 0.01 -0.005
0.0271647 0.01 0.005
0.0272843 0.01 -0.005
0.0272843 0.01 0.005
0.0274048 0.01 -0.005
0.0274048 0.01 0.005
0.0275261 0.01 -0.005
0.0275261 0.01 0.005
0.0276482 0.01 -0.005
0.0276482 0.01 0.005
0.0277713 0.01 -0.005
0.0277713 0.01 0.005
0.0278951 0.01 -0.005
0.0278951 0.01 0.005
0.0280199 0.01 -0.005
0.0280199 0.01 0.005
0.0281455 0.01 -0.005
0.0281455 0.01 0.005
0.0282721 0.01 -0.005
0.0282721 0.01 0.005
0.0283995 0.01 -0.005
0.0283995 0.01 0.005
0.0285278 0.01 -0.005
0.0285278 0.01 0.005
0.028657 0.01 -0.005
0.028657 0.01 0.005
0.0287871 0.01 -0.005
0.0287871 0.01 0.005
0.0289181 0.01 -0.005
0.0289181 0.01 0.005
0.0290501 0.01 -0.005
0.0290501 0.01 0.005
0.0291829 0.01 -0.005
0.0291829 0.01 0.005
0.0293167 0.01 -0.005
0.0293167 0.01 0.005
0.0294515 0.01 -0.005
0.0294515 0.01 0.005
0.0295872 0.01 -0.005
0.0295872 0.01 0.005
0.0297238 0.01 -0.005
0.0297238 0.01 0.005
0.0298614 0.01 -0.005
0.0298614 0.01 0.005
0.03 0.01 -0.005
0.03 0.01 0.005

POLYGONS 100 500
4 0 1 2 3
4 1 4 5 2
4 4 6 7 5
4 6 8 9 7
4 8 10 11 9
4 10 12 13 11
4 12 14 15 13
4 14 16 17 15
4 16 18 19 17
4 18 20 21 19
4 20 22 23 21
4 22 24 25 23
4 24 26 27 25
4 26 28 29 27
4 28 30 31 29
4 30 32 33 31
4 32 34 35 33
4 34 36 37 35
4 36 38 39 37
4 38 40 41 39
4 40 42 43 41
4 42 44 45 43
4 44 46 47 45
4 46 48 49 47
4 48 50 51 49
4 50 52 53 51
4 52 54 55 53
4 54 56 57 55
4 56 58 59 57
4 58 60 61 59
4 60 62 63 61
4 62 64 65 63
4 64 66 67 65
4 66 68 69 67
4 68 70 71 69
4 70 72 73 71
4 72 74 75 73
4 74 76 77 75
4 76 78 79 77
4 78 80 81 79
4 80 82 83 81
4 82 84 85 83
4 84 86 87 85
4 86 88 89 87
4 88 90 91 89
4 90 92 93 91
4 92 94 95 93
4 94 96 97 95
4 96 98 99 97
4 98 100 101 99
4 100 102 103 101
4 102 104 105 103
4 104 106 107 105
4 106 108 109 107
4 108 110 111 109
4 110 112 113 111
4 112 114 115 113
4 114 116 117 115
4 116 118 119 117
4 118 120 121 119
4 120 122 123 121
4 122 124 125 123
4 124 126 127 125
4 126 128 129 127
4 128 130 131 129
4 130 132 133 131
4 132 134 135 133
4 134 136 137 135
4 136 138 139 137
4 138 140 141 139
4 140 142 143 141
4 142 144 145 143
4 144 146 147 145
4 146 148 149 147
4 148 150 151 149
4 150 152 153 151
4 152 154 155 153
4 154 156 157 155
4 156 158 159 157
4 158 160 161 159
4 160 162 163 161
4 162 164 165 163
4 164 166 167 165
4 166 168 169 167
4 168 170 171 169
4 170 172 173 171
4 172 174 175 173
4 174 176 177 175
4 176 178 179 177
4 178 180 181 179
4 180 182 183 181
4 182 184 185 183
4 184 186 187 185
4 186 188 189 187
4 188 190 191 189
4 190 192 193 191
4 192 194 195 193
4 194 196 197 195
4 196 198 199 197
4 198 200 201 199
CELL_DATA 100
FIELD attributes 1
wallShearStress 3 100 float
-0.01153 -0.00025271 0
-0.0118416 -0.000458099 0
-0.0097926 -0.000310565 0
-0.00838974 -0.000125157 0
-0.00768794 -4.06005e-05 0
-0.00715337 -3.19192e-05 0
-0.00664071 -3.18732e-05 0
-0.00616864 -2.69229e-05 0
-0.00576835 -2.37988e-05 0
-0.00543246 -2.33857e-05 0
-0.00522183 -7.57268e-06 0
-0.00540987 7.65357e-05 0
-0.00630238 0.000197801 0
-0.00743848 0.000229011 0
-0.00723794 -7.80713e-05 0
-0.00394097 -0.000674116 0
0.00172777 -0.000919966 0
0.00582623 -0.000548814 0
0.00585033 9.40633e-05 0
0.00303647 0.000436109 0
-0.000294352 0.000429646 0
-0.00277221 0.000277974 0
-0.00412175 0.0001344 0
-0.00465392 4.67258e-05 0
-0.00472676 2.58022e-06 0
-0.00456819 -2.183e-05 0
-0.00430268 -3.35615e-05 0
-0.00400685 -3.75828e-05 0
-0.00374058 -3.3591e-05 0
-0.00359873 -1.20156e-05 0
-0.00370378 3.07947e-05 0
-0.00399381 5.61147e-05 0
-0.00405992 4.44319e-06 0
-0.00334583 -0.000132015 0
-0.00192044 -0.000210082 0
-0.00100269 -0.000105345 0
-0.00200091 0.000139368 0
-0.00452272 0.000291099 0
-0.00701237 0.000262365 0
-0.0088438 0.000224954 0
-0.0100394 0.000207054 0
-0.0102091 9.09471e-05 0
-0.00866852 -0.000167813 0
-0.00507665 -0.000475561 0
-0.000139993 -0.000653941 0
0.00447772 -0.000604397 0
0.0073464 -0.000359941 0
0.00788176 -4.91174e-05 0
0.00636936 0.000195829 0
0.00382366 0.000288724 0
0.00124219 0.000272739 0
-0.000853172 0.000211377 0
-0.00229082 0.000137214 0
-0.00317953 8.20382e-05 0
-0.00369652 4.81505e-05 0
-0.00399992 3.06446e-05 0
-0.00418789 2.20342e-05 0
-0.0043005 1.61001e-05 0
-0.00434277 1.06995e-05 0
-0.00431459 4.0533e-06 0
-0.00422852 2.94155e-07 0
-0.00410221 -5.99917e-07 0
-0.00392977 -2.43296e-06 0
-0.00365766 -1.22251e-05 0
-0.00318994 -3.56309e-05 0
-0.00243322 -7.16599e-05 0
-0.00137592 -0.000110026 0
-0.000132891 -0.000132377 0
0.00105075 -0.00012774 0
0.00187893 -8.91487e-05 0
0.00212481 -2.73114e-05 0
0.00172738 4.06545e-05 0
0.000854988 8.48237e-05 0
-0.00021081 9.57736e-05 0
-0.00120639 8.67732e-05 0
-0.00197656 6.3838e-05 0
-0.00248792 4.01615e-05 0
-0.00278594 2.18742e-05 0
-0.00294615 1.05944e-05 0
-0.00304229 5.44055e-06 0
-0.00314208 6.23252e-06 0
-0.00332177 1.51486e-05 0
-0.0036627 3.2469e-05 0
-0.00419546 5.19702e-05 0
-0.00481776 6.10903e-05 0
-0.00526314 4.81597e-05 0
-0.00515761 1.08529e-06 0
-0.00420672 -7.34026e-05 0
-0.0024492 -0.000143569 0
-0.000270276 -0.000183085 0
0.00171481 -0.000165272 0
0.00299044 -0.000105717 0
0.00329758 -2.44321e-05 0
0.00271313 4.76632e-05 0
0.00144152 9.73852e-05 0
3.54687e-05 0.000106122 0
-0.0014504 9.919e-05 0
-0.00244883 7.22569e-05 0
-0.00327798 5.32807e-05 0
-0.00411058 3.38727e-05 0
