# vtk DataFile Version 2.0
sampleSurface
ASCII
DATASET POLYDATA
POINTS 202 double
0.02 0.01 -0.005
0.0200693 0.01 -0.005
0.0200693 0.01 0.005
0.02 0.01 0.005
0.0201391 0.01 -0.005
0.0201391 0.01 0.005
0.0202093 0.01 -0.005
0.0202093 0.01 0.005
0.0202801 0.01 -0.005
0.0202801 0.01 0.005
0.0203513 0.01 -0.005
0.0203513 0.01 0.005
0.0204231 0.01 -0.005
0.0204231 0.01 0.005
0.0204954 0.01 -0.005
0.0204954 0.01 0.005
0.0205681 0.01 -0.005
0.0205681 0.01 0.005
0.0206414 0.01 -0.005
0.0206414 0.01 0.005
0.0207152 0.01 -0.005
0.0207152 0.01 0.005
0.0207895 0.01 -0.005
0.0207895 0.01 0.005
0.0208643 0.01 -0.005
0.0208643 0.01 0.005
0.0209397 0.01 -0.005
0.0209397 0.01 0.005
0.0210156 0.01 -0.005
0.0210156 0.01 0.005
0.021092 0.01 -0.005
0.021092 0.01 0.005
0.021169 0.01 -0.005
0.021169 0.01 0.005
0.0212465 0.01 -0.005
0.0212465 0.01 0.005
0.0213245 0.01 -0.005
0.0213245 0.01 0.005
0.0214031 0.01 -0.005
0.0214031 0.01 0.005
0.0214823 0.01 -0.005
0.0214823 0.01 0.005
0.021562 0.01 -0.005
0.021562 0.01 0.005
0.0216422 0.01 -0.005
0.0216422 0.01 0.005
0.021723 0.01 -0.005
0.021723 0.01 0.005
0.0218044 0.01 -0.005
0.0218044 0.01 0.005
0.0218864 0.01 -0.005
0.0218864 0.01 0.005
0.0219689 0.01 -0.005
0.0219689 0.01 0.005
0.0220521 0.01 -0.005
0.0220521 0.01 0.005
0.0221358 0.01 -0.005
0.0221358 0.01 0.005
0.0222201 0.01 -0.005
0.0222201 0.01 0.005
0.0223049 0.01 -0.005
0.0223049 0.01 0.005
0.0223904 0.01 -0.005
0.0223904 0.01 0.005
0.0224765 0.01 -0.005
0.0224765 0.01 0.005
0.0225632 0.01 -0.005
0.0225632 0.01 0.005
0.0226505 0.01 -0.005
0.0226505 0.01 0.005
0.0227384 0.01 -0.005
0.0227384 0.01 0.005
0.0228269 0.01 -0.005
0.0228269 0.01 0.005
0.0229161 0.01 -0.005
0.0229161 0.01 0.005
0.0230058 0.01 -0.005
0.0230058 0.01 0.005
0.0230963 0.01 -0.005
0.0230963 0.01 0.005
0.0231873 0.01 -0.005
0.0231873 0.01 0.005
0.023279 0.01 -0.005
0.023279 0.01 0.005
0.0233713 0.01 -0.005
0.0233713 0.01 0.005
0.0234643 0.01 -0.005
0.0234643 0.01 0.005
0.0235579 0.01 -0.005
0.0235579 0.01 0.005
0.0236522 0.01 -0.005
0.0236522 0.01 0.005
0.0237471 0.01 -0.005
0.0237471 0.01 0.005
0.0238428 0.01 -0.005
0.0238428 0.01 0.005
0.023939 0.01 -0.005
0.023939 0.01 0.005
0.024036 0.01 -0.005
0.024036 0.01 0.005
0.0241336 0.01 -0.005
0.0241336 0.01 0.005
0.024232 0.01 -0.005
0.024232 0.01 0.005
0.024331 0.01 -0.005
0.024331 0.01 0.005
0.0244307 0.01 -0.005
0.0244307 0.01 0.005
0.0245311 0.01 -0.005
0.0245311 0.01 0.005
0.0246323 0.01 -0.005
0.0246323 0.01 0.005
0.0247341 0.01 -0.005
0.0247341 0.01 0.005
0.0248366 0.01 -0.005
0.0248366 0.01 0.005
0.0249399 0.01 -0.005
0.0249399 0.01 0.005
0.0250439 0.01 -0.005
0.0250439 0.01 0.005
0.0251486 0.01 -0.005
0.0251486 0.01 0.005
0.0252541 0.01 -0.005
0.0252541 0.01 0.005
0.0253603 0.01 -0.005
0.0253603 0.01 0.005
0.0254672 0.01 -0.005
0.0254672 0.01 0.005
0.0255749 0.01 -0.005
0.0255749 0.01 0.005
0.0256834 0.01 -0.005
0.0256834 0.01 0.005
0.0257926 0.01 -0.005
0.0257926 0.01 0.005
0.0259026 0.01 -0.005
0.0259026 0.01 0.005
0.0260134 0.01 -0.005
0.0260134 0.01 0.005
0.0261249 0.01 -0.005
0.0261249 0.01 0.005
0.0262372 0.01 -0.005
0.0262372 0.01 0.005
0.0263503 0.01 -0.005
0.0263503 0.01 0.005
0.0264642 0.01 -0.005
0.0264642 0.01 0.005
0.0265789 0.01 -0.005
0.0265789 0.01 0.005
0.0266944 0.01 -0.005
0.0266944 0.01 0.005
0.0268108 0.01 -0.005
0.0268108 0.01 0.005
0.0269279 0.01 -0.005
0.0269279 0.01 0.005
0.0270459 0.01 -0.005
0.0270459 0.01 0.005
0.0271647 0.01 -0.005
0.0271647 0.01 0.005
0.0272843 0.01 -0.005
0.0272843 0.01 0.005
0.0274048 0.01 -0.005
0.0274048 0.01 0.005
0.0275261 0.01 -0.005
0.0275261 0.01 0.005
0.0276482 0.01 -0.005
0.0276482 0.01 0.005
0.0277713 0.01 -0.005
0.0277713 0.01 0.005
0.0278951 0.01 -0.005
0.0278951 0.01 0.005
0.0280199 0.01 -0.005
0.0280199 0.01 0.005
0.0281455 0.01 -0.005
0.0281455 0.01 0.005
0.0282721 0.01 -0.005
0.0282721 0.01 0.005
0.0283995 0.01 -0.005
0.0283995 0.01 0.005
0.0285278 0.01 -0.005
0.0285278 0.01 0.005
0.028657 0.01 -0.005
0.028657 0.01 0.005
0.0287871 0.01 -0.005
0.0287871 0.01 0.005
0.0289181 0.01 -0.005
0.0289181 0.01 0.005
0.0290501 0.01 -0.005
0.0290501 0.01 0.005
0.0291829 0.01 -0.005
0.0291829 0.01 0.005
0.0293167 0.01 -0.005
0.0293167 0.01 0.005
0.0294515 0.01 -0.005
0.0294515 0.01 0.005
0.0295872 0.01 -0.005
0.0295872 0.01 0.005
0.0297238 0.01 -0.005
0.0297238 0.01 0.005
0.0298614 0.01 -0.005
0.0298614 0.01 0.005
0.03 0.01 -0.005
0.03 0.01 0.005

POLYGONS 100 500
4 0 1 2 3
4 1 4 5 2
4 4 6 7 5
4 6 8 9 7
4 8 10 11 9
4 10 12 13 11
4 12 14 15 13
4 14 16 17 15
4 16 18 19 17
4 18 20 21 19
4 20 22 23 21
4 22 24 25 23
4 24 26 27 25
4 26 28 29 27
4 28 30 31 29
4 30 32 33 31
4 32 34 35 33
4 34 36 37 35
4 36 38 39 37
4 38 40 41 39
4 40 42 43 41
4 42 44 45 43
4 44 46 47 45
4 46 48 49 47
4 48 50 51 49
4 50 52 53 51
4 52 54 55 53
4 54 56 57 55
4 56 58 59 57
4 58 60 61 59
4 60 62 63 61
4 62 64 65 63
4 64 66 67 65
4 66 68 69 67
4 68 70 71 69
4 70 72 73 71
4 72 74 75 73
4 74 76 77 75
4 76 78 79 77
4 78 80 81 79
4 80 82 83 81
4 82 84 85 83
4 84 86 87 85
4 86 88 89 87
4 88 90 91 89
4 90 92 93 91
4 92 94 95 93
4 94 96 97 95
4 96 98 99 97
4 98 100 101 99
4 100 102 103 101
4 102 104 105 103
4 104 106 107 105
4 106 108 109 107
4 108 110 111 109
4 110 112 113 111
4 112 114 115 113
4 114 116 117 115
4 116 118 119 117
4 118 120 121 119
4 120 122 123 121
4 122 124 125 123
4 124 126 127 125
4 126 128 129 127
4 128 130 131 129
4 130 132 133 131
4 132 134 135 133
4 134 136 137 135
4 136 138 139 137
4 138 140 141 139
4 140 142 143 141
4 142 144 145 143
4 144 146 147 145
4 146 148 149 147
4 148 150 151 149
4 150 152 153 151
4 152 154 155 153
4 154 156 157 155
4 156 158 159 157
4 158 160 161 159
4 160 162 163 161
4 162 164 165 163
4 164 166 167 165
4 166 168 169 167
4 168 170 171 169
4 170 172 173 171
4 172 174 175 173
4 174 176 177 175
4 176 178 179 177
4 178 180 181 179
4 180 182 183 181
4 182 184 185 183
4 184 186 187 185
4 186 188 189 187
4 188 190 191 189
4 190 192 193 191
4 192 194 195 193
4 194 196 197 195
4 196 198 199 197
4 198 200 201 199
CELL_DATA 100
FIELD attributes 1
wallShearStress 3 100 float
-0.0104239 -0.00282922 0
-0.00169357 -0.000494782 0
-0.00243637 8.22957e-05 0
-0.00183686 -7.14348e-05 0
-0.00121638 -7.93634e-05 0
-0.000699461 -6.18279e-05 0
-0.000331565 -4.01378e-05 0
-0.000119011 -1.84016e-05 0
-5.77308e-05 3.54234e-07 0
-0.000125127 1.65657e-05 0
-0.000292564 2.88991e-05 0
-0.000528716 3.53846e-05 0
-0.000779848 3.05788e-05 0
-0.00103005 2.85706e-05 0
-0.00153478 7.99408e-05 0
-0.00280755 0.000201267 0
-0.00489003 0.00030432 0
-0.0071373 0.00032791 0
-0.00860346 0.000266535 0
-0.00758476 -0.000171595 0
-0.00241335 -0.000922735 0
0.00506834 -0.00113998 0
0.0105243 -0.000818726 0
0.012203 -0.000214468 0
0.010247 0.000318712 0
0.00622866 0.000544198 0
0.00197928 0.000503213 0
-0.00137052 0.000361355 0
-0.0034175 0.00019766 0
-0.00447284 9.20044e-05 0
-0.00497228 4.55853e-05 0
-0.00528642 4.33393e-05 0
-0.00555267 5.00877e-05 0
-0.00564757 3.13526e-05 0
-0.00534912 -2.82928e-05 0
-0.00460802 -8.84722e-05 0
-0.00364817 -0.000114072 0
-0.00277384 -9.85817e-05 0
-0.00215617 -6.5466e-05 0
-0.0017891 -3.7101e-05 0
-0.00157217 -2.20974e-05 0
-0.00140851 -1.89753e-05 0
-0.0012446 -2.14484e-05 0
-0.00107283 -2.36243e-05 0
-0.000917345 -2.17456e-05 0
-0.00081339 -1.52103e-05 0
-0.000788763 -5.67128e-06 0
-0.000851535 4.98792e-06 0
-0.000989159 1.37774e-05 0
-0.00117683 1.94958e-05 0
-0.00138711 2.20547e-05 0
-0.00159649 2.2092e-05 0
-0.00178759 2.03888e-05 0
-0.0019484 1.75394e-05 0
-0.002071 1.39743e-05 0
-0.00214977 9.84074e-06 0
-0.00218048 5.73101e-06 0
-0.00216125 5.91266e-07 0
-0.00209342 -4.47904e-06 0
-0.00198229 -9.19879e-06 0
-0.00183776 -1.30692e-05 0
-0.00167416 -1.5549e-05 0
-0.00150924 -1.61922e-05 0
-0.00136184 -1.47999e-05 0
-0.00124853 -1.15822e-05 0
-0.00118033 -7.26885e-06 0
-0.0011612 -2.71241e-06 0
-0.00118803 1.88903e-06 0
-0.00125161 5.53515e-06 0
-0.0013385 7.78236e-06 0
-0.00143284 8.25472e-06 0
-0.00151878 6.87841e-06 0
-0.00158491 4.16661e-06 0
-0.00163078 1.38029e-06 0
-0.00167231 3.91811e-07 0
-0.00174005 2.94253e-06 0
-0.00186982 9.41173e-06 0
-0.00209036 1.89227e-05 0
-0.00241111 2.95778e-05 0
-0.0028077 3.81005e-05 0
-0.00320768 3.98218e-05 0
-0.00349152 3.07641e-05 0
-0.00351752 9.55073e-06 0
-0.00317065 -2.38147e-05 0
-0.0024206 -6.07941e-05 0
-0.00135483 -9.12218e-05 0
-0.000182385 -0.000101634 0
0.000804952 -8.57446e-05 0
0.0013253 -4.42998e-05 0
0.00124956 7.20123e-06 0
0.00066526 4.77019e-05 0
-0.000179597 6.25315e-05 0
-0.00104287 6.3458e-05 0
-0.00176324 5.15789e-05 0
-0.00228323 3.64654e-05 0
-0.00259812 2.19953e-05 0
-0.00275353 1.04554e-05 0
-0.00275432 1.0939e-06 0
-0.00272978 -3.40337e-06 0
-0.00251063 -8.8535e-06 0
