# vtk DataFile Version 2.0
sampleSurface
ASCII
DATASET POLYDATA
POINTS 202 double
0.02 0.01 -0.005
0.0200693 0.01 -0.005
0.0200693 0.01 0.005
0.02 0.01 0.005
0.0201391 0.01 -0.005
0.0201391 0.01 0.005
0.0202093 0.01 -0.005
0.0202093 0.01 0.005
0.0202801 0.01 -0.005
0.0202801 0.01 0.005
0.0203513 0.01 -0.005
0.0203513 0.01 0.005
0.0204231 0.01 -0.005
0.0204231 0.01 0.005
0.0204954 0.01 -0.005
0.0204954 0.01 0.005
0.0205681 0.01 -0.005
0.0205681 0.01 0.005
0.0206414 0.01 -0.005
0.0206414 0.01 0.005
0.0207152 0.01 -0.005
0.0207152 0.01 0.005
0.0207895 0.01 -0.005
0.0207895 0.01 0.005
0.0208643 0.01 -0.005
0.0208643 0.01 0.005
0.0209397 0.01 -0.005
0.0209397 0.01 0.005
0.0210156 0.01 -0.005
0.0210156 0.01 0.005
0.021092 0.01 -0.005
0.021092 0.01 0.005
0.021169 0.01 -0.005
0.021169 0.01 0.005
0.0212465 0.01 -0.005
0.0212465 0.01 0.005
0.0213245 0.01 -0.005
0.0213245 0.01 0.005
0.0214031 0.01 -0.005
0.0214031 0.01 0.005
0.0214823 0.01 -0.005
0.0214823 0.01 0.005
0.021562 0.01 -0.005
0.021562 0.01 0.005
0.0216422 0.01 -0.005
0.0216422 0.01 0.005
0.021723 0.01 -0.005
0.021723 0.01 0.005
0.0218044 0.01 -0.005
0.0218044 0.01 0.005
0.0218864 0.01 -0.005
0.0218864 0.01 0.005
0.0219689 0.01 -0.005
0.0219689 0.01 0.005
0.0220521 0.01 -0.005
0.0220521 0.01 0.005
0.0221358 0.01 -0.005
0.0221358 0.01 0.005
0.0222201 0.01 -0.005
0.0222201 0.01 0.005
0.0223049 0.01 -0.005
0.0223049 0.01 0.005
0.0223904 0.01 -0.005
0.0223904 0.01 0.005
0.0224765 0.01 -0.005
0.0224765 0.01 0.005
0.0225632 0.01 -0.005
0.0225632 0.01 0.005
0.0226505 0.01 -0.005
0.0226505 0.01 0.005
0.0227384 0.01 -0.005
0.0227384 0.01 0.005
0.0228269 0.01 -0.005
0.0228269 0.01 0.005
0.0229161 0.01 -0.005
0.0229161 0.01 0.005
0.0230058 0.01 -0.005
0.0230058 0.01 0.005
0.0230963 0.01 -0.005
0.0230963 0.01 0.005
0.0231873 0.01 -0.005
0.0231873 0.01 0.005
0.023279 0.01 -0.005
0.023279 0.01 0.005
0.0233713 0.01 -0.005
0.0233713 0.01 0.005
0.0234643 0.01 -0.005
0.0234643 0.01 0.005
0.0235579 0.01 -0.005
0.0235579 0.01 0.005
0.0236522 0.01 -0.005
0.0236522 0.01 0.005
0.0237471 0.01 -0.005
0.0237471 0.01 0.005
0.0238428 0.01 -0.005
0.0238428 0.01 0.005
0.023939 0.01 -0.005
0.023939 0.01 0.005
0.024036 0.01 -0.005
0.024036 0.01 0.005
0.0241336 0.01 -0.005
0.0241336 0.01 0.005
0.024232 0.01 -0.005
0.024232 0.01 0.005
0.024331 0.01 -0.005
0.024331 0.01 0.005
0.0244307 0.01 -0.005
0.0244307 0.01 0.005
0.0245311 0.01 -0.005
0.0245311 0.01 0.005
0.0246323 0.01 -0.005
0.0246323 0.01 0.005
0.0247341 0.01 -0.005
0.0247341 0.01 0.005
0.0248366 0.01 -0.005
0.0248366 0.01 0.005
0.0249399 0.01 -0.005
0.0249399 0.01 0.005
0.0250439 0.01 -0.005
0.0250439 0.01 0.005
0.0251486 0.01 -0.005
0.0251486 0.01 0.005
0.0252541 0.01 -0.005
0.0252541 0.01 0.005
0.0253603 0.01 -0.005
0.0253603 0.01 0.005
0.0254672 0.01 -0.005
0.0254672 0.01 0.005
0.0255749 0.01 -0.005
0.0255749 0.01 0.005
0.0256834 0.01 -0.005
0.0256834 0.01 0.005
0.0257926 0.01 -0.005
0.0257926 0.01 0.005
0.0259026 0.01 -0.005
0.0259026 0.01 0.005
0.0260134 0.01 -0.005
0.0260134 0.01 0.005
0.0261249 0.01 -0.005
0.0261249 0.01 0.005
0.0262372 0.01 -0.005
0.0262372 0.01 0.005
0.0263503 0.01 -0.005
0.0263503 0.01 0.005
0.0264642 0.01 -0.005
0.0264642 0.01 0.005
0.0265789 0.01 -0.005
0.0265789 0.01 0.005
0.0266944 0.01 -0.005
0.0266944 0.01 0.005
0.0268108 0.01 -0.005
0.0268108 0.01 0.005
0.0269279 0.01 -0.005
0.0269279 0.01 0.005
0.0270459 0.01 -0.005
0.0270459 0.01 0.005
0.0271647 0.01 -0.005
0.0271647 0.01 0.005
0.0272843 0.01 -0.005
0.0272843 0.01 0.005
0.0274048 0.01 -0.005
0.0274048 0.01 0.005
0.0275261 0.01 -0.005
0.0275261 0.01 0.005
0.0276482 0.01 -0.005
0.0276482 0.01 0.005
0.0277713 0.01 -0.005
0.0277713 0.01 0.005
0.0278951 0.01 -0.005
0.0278951 0.01 0.005
0.0280199 0.01 -0.005
0.0280199 0.01 0.005
0.0281455 0.01 -0.005
0.0281455 0.01 0.005
0.0282721 0.01 -0.005
0.0282721 0.01 0.005
0.0283995 0.01 -0.005
0.0283995 0.01 0.005
0.0285278 0.01 -0.005
0.0285278 0.01 0.005
0.028657 0.01 -0.005
0.028657 0.01 0.005
0.0287871 0.01 -0.005
0.0287871 0.01 0.005
0.0289181 0.01 -0.005
0.0289181 0.01 0.005
0.0290501 0.01 -0.005
0.0290501 0.01 0.005
0.0291829 0.01 -0.005
0.0291829 0.01 0.005
0.0293167 0.01 -0.005
0.0293167 0.01 0.005
0.0294515 0.01 -0.005
0.0294515 0.01 0.005
0.0295872 0.01 -0.005
0.0295872 0.01 0.005
0.0297238 0.01 -0.005
0.0297238 0.01 0.005
0.0298614 0.01 -0.005
0.0298614 0.01 0.005
0.03 0.01 -0.005
0.03 0.01 0.005

POLYGONS 100 500
4 0 1 2 3
4 1 4 5 2
4 4 6 7 5
4 6 8 9 7
4 8 10 11 9
4 10 12 13 11
4 12 14 15 13
4 14 16 17 15
4 16 18 19 17
4 18 20 21 19
4 20 22 23 21
4 22 24 25 23
4 24 26 27 25
4 26 28 29 27
4 28 30 31 29
4 30 32 33 31
4 32 34 35 33
4 34 36 37 35
4 36 38 39 37
4 38 40 41 39
4 40 42 43 41
4 42 44 45 43
4 44 46 47 45
4 46 48 49 47
4 48 50 51 49
4 50 52 53 51
4 52 54 55 53
4 54 56 57 55
4 56 58 59 57
4 58 60 61 59
4 60 62 63 61
4 62 64 65 63
4 64 66 67 65
4 66 68 69 67
4 68 70 71 69
4 70 72 73 71
4 72 74 75 73
4 74 76 77 75
4 76 78 79 77
4 78 80 81 79
4 80 82 83 81
4 82 84 85 83
4 84 86 87 85
4 86 88 89 87
4 88 90 91 89
4 90 92 93 91
4 92 94 95 93
4 94 96 97 95
4 96 98 99 97
4 98 100 101 99
4 100 102 103 101
4 102 104 105 103
4 104 106 107 105
4 106 108 109 107
4 108 110 111 109
4 110 112 113 111
4 112 114 115 113
4 114 116 117 115
4 116 118 119 117
4 118 120 121 119
4 120 122 123 121
4 122 124 125 123
4 124 126 127 125
4 126 128 129 127
4 128 130 131 129
4 130 132 133 131
4 132 134 135 133
4 134 136 137 135
4 136 138 139 137
4 138 140 141 139
4 140 142 143 141
4 142 144 145 143
4 144 146 147 145
4 146 148 149 147
4 148 150 151 149
4 150 152 153 151
4 152 154 155 153
4 154 156 157 155
4 156 158 159 157
4 158 160 161 159
4 160 162 163 161
4 162 164 165 163
4 164 166 167 165
4 166 168 169 167
4 168 170 171 169
4 170 172 173 171
4 172 174 175 173
4 174 176 177 175
4 176 178 179 177
4 178 180 181 179
4 180 182 183 181
4 182 184 185 183
4 184 186 187 185
4 186 188 189 187
4 188 190 191 189
4 190 192 193 191
4 192 194 195 193
4 194 196 197 195
4 196 198 199 197
4 198 200 201 199
CELL_DATA 100
FIELD attributes 1
wallShearStress 3 100 float
-0.0135686 -0.00819621 0
0.0123207 -0.000676109 0
-0.00244151 0.00076229 0
0.00200374 -0.000101107 0
-0.000888942 0.00013397 0
-0.000450347 0.00010549 0
-0.00168351 4.43981e-05 0
-0.00126463 1.69261e-05 0
-0.00105743 -1.44627e-05 0
-0.000436903 -8.86113e-06 0
5.14772e-05 -2.74156e-05 0
0.00102024 -0.000127215 0
0.00294452 -0.000326599 0
0.00613384 -0.000566073 0
0.00995574 -0.000694873 0
0.0130334 -0.000548285 0
0.0138058 -0.000136714 0
0.01155 0.000367796 0
0.00673957 0.000722049 0
0.00111992 0.000644554 0
-0.00270155 0.000309684 0
-0.0038571 0.00016941 0
-0.0033887 3.02222e-05 0
-0.00212143 -0.000133978 0
-0.000624479 -0.000169195 0
0.000494147 -0.0001384 0
0.00124927 -0.000102207 0
0.00178093 -7.08337e-05 0
0.00215428 -5.81619e-05 0
0.00248573 -5.85668e-05 0
0.00280705 -6.36774e-05 0
0.00309946 -6.33461e-05 0
0.00329696 -5.22135e-05 0
0.003325 -2.82928e-05 0
0.00312932 4.02969e-06 0
0.00270351 3.66954e-05 0
0.00209176 6.34256e-05 0
0.00136906 7.89424e-05 0
0.000616907 8.3534e-05 0
-9.36107e-05 7.97453e-05 0
-0.000717529 7.03034e-05 0
-0.00123598 5.85829e-05 0
-0.00165205 4.72387e-05 0
-0.00198154 3.77966e-05 0
-0.00224366 3.06765e-05 0
-0.00245406 2.55004e-05 0
-0.00261918 2.08041e-05 0
-0.00273496 1.53131e-05 0
-0.00279276 8.82571e-06 0
-0.00278978 1.66149e-06 0
-0.00273871 -3.85457e-06 0
-0.0026674 -5.65214e-06 0
-0.00260799 -3.40095e-06 0
-0.00258336 1.44186e-06 0
-0.00259837 6.84034e-06 0
-0.00263816 1.06294e-05 0
-0.00267019 1.14905e-05 0
-0.00264869 6.12424e-06 0
-0.00252416 -5.4008e-06 0
-0.00226021 -2.18101e-05 0
-0.00185067 -4.00357e-05 0
-0.00132708 -5.57271e-05 0
-0.000758441 -6.37746e-05 0
-0.000245273 -5.96829e-05 0
9.7473e-05 -4.23986e-05 0
0.000171083 -1.34075e-05 0
-7.5473e-05 1.65481e-05 0
-0.000625268 4.75356e-05 0
-0.00141036 7.16883e-05 0
-0.00235587 8.91913e-05 0
-0.00340017 0.000103105 0
-0.00444161 0.000108629 0
-0.00519045 8.68776e-05 0
-0.00514111 1.15107e-05 0
-0.00381742 -0.000121445 0
-0.00106936 -0.000278855 0
0.00229374 -0.000317184 0
0.00487976 -0.000243766 0
0.00586455 -8.31847e-05 0
0.00511386 7.82833e-05 0
0.00327162 0.000161572 0
0.00120166 0.000165622 0
-0.000554756 0.000131122 0
-0.00177385 8.61531e-05 0
-0.00251308 5.04126e-05 0
-0.00290916 2.66825e-05 0
-0.00309086 1.25102e-05 0
-0.00315349 5.12703e-06 0
-0.00316003 2.17789e-06 0
-0.00315059 1.85326e-06 0
-0.00314198 3.04452e-06 0
-0.00312509 2.70366e-06 0
-0.00306228 -6.67326e-07 0
-0.00291365 -8.45917e-06 0
-0.00264291 -1.77887e-05 0
-0.00228707 -2.57339e-05 0
-0.00186093 -2.9885e-05 0
-0.00147803 -2.84706e-05 0
-0.00112208 -2.44692e-05 0
-0.000880342 -1.14526e-05 0
